; benchmark generated from python API
(set-info :status unknown)
(declare-fun x_months () Int)
(declare-fun x_beta () Int)
(assert
 (<= (- 1202) x_months))
(assert
 (>= 1209 x_months))
(assert
 (let ((?x2752 (mod x_months 48)))
 (let ((?x13 ((as const (Array Int Int)) 0)))
 (let ((?x15 (store ?x13 0 31)))
 (let ((?x18 (store ?x15 1 30)))
 (let ((?x20 (store ?x18 2 31)))
 (let ((?x22 (store ?x20 3 30)))
 (let ((?x24 (store ?x22 4 31)))
 (let ((?x26 (store ?x24 5 31)))
 (let ((?x28 (store ?x26 6 30)))
 (let ((?x30 (store ?x28 7 31)))
 (let ((?x32 (store ?x30 8 30)))
 (let ((?x34 (store ?x32 9 31)))
 (let ((?x36 (store ?x34 10 31)))
 (let ((?x39 (store ?x36 11 28)))
 (let ((?x41 (store ?x39 12 31)))
 (let ((?x43 (store ?x41 13 30)))
 (let ((?x45 (store ?x43 14 31)))
 (let ((?x47 (store ?x45 15 30)))
 (let ((?x49 (store ?x47 16 31)))
 (let ((?x51 (store ?x49 17 31)))
 (let ((?x53 (store ?x51 18 30)))
 (let ((?x55 (store ?x53 19 31)))
 (let ((?x57 (store ?x55 20 30)))
 (let ((?x59 (store ?x57 21 31)))
 (let ((?x61 (store ?x59 22 31)))
 (let ((?x63 (store ?x61 23 28)))
 (let ((?x65 (store ?x63 24 31)))
 (let ((?x67 (store ?x65 25 30)))
 (let ((?x69 (store ?x67 26 31)))
 (let ((?x71 (store ?x69 27 30)))
 (let ((?x72 (store ?x71 28 31)))
 (let ((?x74 (store ?x72 29 31)))
 (let ((?x75 (store ?x74 30 30)))
 (let ((?x76 (store ?x75 31 31)))
 (let ((?x78 (store ?x76 32 30)))
 (let ((?x80 (store ?x78 33 31)))
 (let ((?x82 (store ?x80 34 31)))
 (let ((?x84 (store ?x82 35 28)))
 (let ((?x86 (store ?x84 36 31)))
 (let ((?x88 (store ?x86 37 30)))
 (let ((?x90 (store ?x88 38 31)))
 (let ((?x92 (store ?x90 39 30)))
 (let ((?x94 (store ?x92 40 31)))
 (let ((?x96 (store ?x94 41 31)))
 (let ((?x98 (store ?x96 42 30)))
 (let ((?x100 (store ?x98 43 31)))
 (let ((?x102 (store ?x100 44 30)))
 (let ((?x104 (store ?x102 45 31)))
 (let ((?x106 (store ?x104 46 31)))
 (let ((?x108 (store ?x106 47 29)))
 (let ((?x5961 (select ?x108 ?x2752)))
 (let ((?x2032 (ite (or (= 22802 (+ x_months 24003)) (= 25202 (+ x_months 24003))) 28 ?x5961)))
 (let (($x463 (<= 0 x_beta)))
 (and $x463 (< x_beta ?x2032))))))))))))))))))))))))))))))))))))))))))))))))))))))))
(assert
 (let (($x463 (<= 0 x_beta)))
 (or (> x_months (- (+ (* 2023 12) 1) 24003)) (and (= x_months (- (+ (* 2023 12) 1) 24003)) $x463))))
(assert
 (let (($x5285 (and (= x_months (- (+ (* 2023 12) 12) 24003)) (>= 30 x_beta))))
 (or (< x_months (- (+ (* 2023 12) 12) 24003)) $x5285)))
(assert
 (let ((?x5454 (+ x_months 0)))
(let ((?x4798 (mod ?x5454 48)))
(let ((?x1022 (ite (> 22803 (+ ?x5454 24003)) 1 (ite (<= 25203 (+ ?x5454 24003)) (- 1) 0))))
(let ((?x13 ((as const (Array Int Int)) 0)))
(let ((?x15 (store ?x13 0 31)))
(let ((?x18 (store ?x15 1 30)))
(let ((?x20 (store ?x18 2 31)))
(let ((?x22 (store ?x20 3 30)))
(let ((?x24 (store ?x22 4 31)))
(let ((?x26 (store ?x24 5 31)))
(let ((?x28 (store ?x26 6 30)))
(let ((?x30 (store ?x28 7 31)))
(let ((?x32 (store ?x30 8 30)))
(let ((?x34 (store ?x32 9 31)))
(let ((?x36 (store ?x34 10 31)))
(let ((?x39 (store ?x36 11 28)))
(let ((?x41 (store ?x39 12 31)))
(let ((?x43 (store ?x41 13 30)))
(let ((?x45 (store ?x43 14 31)))
(let ((?x47 (store ?x45 15 30)))
(let ((?x49 (store ?x47 16 31)))
(let ((?x51 (store ?x49 17 31)))
(let ((?x53 (store ?x51 18 30)))
(let ((?x55 (store ?x53 19 31)))
(let ((?x57 (store ?x55 20 30)))
(let ((?x59 (store ?x57 21 31)))
(let ((?x61 (store ?x59 22 31)))
(let ((?x63 (store ?x61 23 28)))
(let ((?x65 (store ?x63 24 31)))
(let ((?x67 (store ?x65 25 30)))
(let ((?x69 (store ?x67 26 31)))
(let ((?x71 (store ?x69 27 30)))
(let ((?x72 (store ?x71 28 31)))
(let ((?x74 (store ?x72 29 31)))
(let ((?x75 (store ?x74 30 30)))
(let ((?x76 (store ?x75 31 31)))
(let ((?x78 (store ?x76 32 30)))
(let ((?x80 (store ?x78 33 31)))
(let ((?x82 (store ?x80 34 31)))
(let ((?x84 (store ?x82 35 28)))
(let ((?x86 (store ?x84 36 31)))
(let ((?x88 (store ?x86 37 30)))
(let ((?x90 (store ?x88 38 31)))
(let ((?x92 (store ?x90 39 30)))
(let ((?x94 (store ?x92 40 31)))
(let ((?x96 (store ?x94 41 31)))
(let ((?x98 (store ?x96 42 30)))
(let ((?x100 (store ?x98 43 31)))
(let ((?x102 (store ?x100 44 30)))
(let ((?x104 (store ?x102 45 31)))
(let ((?x106 (store ?x104 46 31)))
(let ((?x108 (store ?x106 47 29)))
(let ((?x4833 (ite (or (= 22802 (+ ?x5454 24003)) (= 25202 (+ ?x5454 24003))) 28 (select ?x108 ?x4798))))
(let ((?x5357 (- ?x4833 1)))
(let (($x6917 (> 0 x_beta)))
(let ((?x114 (store (store (store (store ?x13 0 0) 1 31) 2 61) 3 92)))
(let ((?x122 (store (store (store (store ?x114 4 122) 5 153) 6 184) 7 214)))
(let ((?x130 (store (store (store (store ?x122 8 245) 9 275) 10 306) 11 337)))
(let ((?x138 (store (store (store (store ?x130 12 365) 13 396) 14 426) 15 457)))
(let ((?x146 (store (store (store (store ?x138 16 487) 17 518) 18 549) 19 579)))
(let ((?x154 (store (store (store (store ?x146 20 610) 21 640) 22 671) 23 702)))
(let ((?x162 (store (store (store (store ?x154 24 730) 25 761) 26 791) 27 822)))
(let ((?x170 (store (store (store (store ?x162 28 852) 29 883) 30 914) 31 944)))
(let ((?x178 (store (store (store (store ?x170 32 975) 33 1005) 34 1036) 35 1067)))
(let ((?x186 (store (store (store (store ?x178 36 1095) 37 1126) 38 1156) 39 1187)))
(let ((?x194 (store (store (store (store ?x186 40 1217) 41 1248) 42 1279) 43 1309)))
(let ((?x202 (store (store (store (store ?x194 44 1340) 45 1370) 46 1401) 47 1432)))
(let ((?x4890 (+ (select ?x202 ?x4798) (ite $x6917 0 (ite (> x_beta ?x5357) ?x5357 x_beta)))))
(let ((?x2627 (+ (+ ?x4890 ?x1022) 61)))
(let ((?x6983 (+ ?x5454 (* (div ?x2627 1461) 48))))
(let ((?x3562 (+ (+ ?x6983 (- 1 ?x4798)) 24003)))
(let ((?x1024 (select ?x202 1)))
(let ((?x1515 (mod ?x2627 1461)))
(let (($x6284 (>= ?x1515 (+ ?x1024 (ite (> 22803 ?x3562) 1 (ite (<= 25203 ?x3562) (- 1) 0))))))
(let ((?x4770 (ite (> 22803 (+ (+ ?x6983 (- 2 ?x4798)) 24003)) 1 (ite (<= 25203 (+ (+ ?x6983 (- 2 ?x4798)) 24003)) (- 1) 0))))
(let ((?x5852 (select ?x202 2)))
(let ((?x5011 (ite (> 22803 (+ (+ ?x6983 (- 3 ?x4798)) 24003)) 1 (ite (<= 25203 (+ (+ ?x6983 (- 3 ?x4798)) 24003)) (- 1) 0))))
(let ((?x5250 (select ?x202 3)))
(let ((?x1491 (ite (>= ?x1515 (+ ?x5250 ?x5011)) 3 (ite (>= ?x1515 (+ ?x5852 ?x4770)) 2 (ite $x6284 1 0)))))
(let ((?x6600 (ite (> 22803 (+ (+ ?x6983 (- 4 ?x4798)) 24003)) 1 (ite (<= 25203 (+ (+ ?x6983 (- 4 ?x4798)) 24003)) (- 1) 0))))
(let ((?x4540 (select ?x202 4)))
(let ((?x5567 (ite (> 22803 (+ (+ ?x6983 (- 5 ?x4798)) 24003)) 1 (ite (<= 25203 (+ (+ ?x6983 (- 5 ?x4798)) 24003)) (- 1) 0))))
(let ((?x6834 (select ?x202 5)))
(let ((?x360 (ite (>= ?x1515 (+ ?x6834 ?x5567)) 5 (ite (>= ?x1515 (+ ?x4540 ?x6600)) 4 ?x1491))))
(let ((?x4577 (ite (> 22803 (+ (+ ?x6983 (- 6 ?x4798)) 24003)) 1 (ite (<= 25203 (+ (+ ?x6983 (- 6 ?x4798)) 24003)) (- 1) 0))))
(let ((?x5446 (select ?x202 6)))
(let ((?x4795 (ite (> 22803 (+ (+ ?x6983 (- 7 ?x4798)) 24003)) 1 (ite (<= 25203 (+ (+ ?x6983 (- 7 ?x4798)) 24003)) (- 1) 0))))
(let ((?x1702 (select ?x202 7)))
(let ((?x6747 (ite (>= ?x1515 (+ ?x1702 ?x4795)) 7 (ite (>= ?x1515 (+ ?x5446 ?x4577)) 6 ?x360))))
(let ((?x4980 (ite (> 22803 (+ (+ ?x6983 (- 8 ?x4798)) 24003)) 1 (ite (<= 25203 (+ (+ ?x6983 (- 8 ?x4798)) 24003)) (- 1) 0))))
(let ((?x4889 (select ?x202 8)))
(let ((?x4035 (ite (> 22803 (+ (+ ?x6983 (- 9 ?x4798)) 24003)) 1 (ite (<= 25203 (+ (+ ?x6983 (- 9 ?x4798)) 24003)) (- 1) 0))))
(let ((?x3339 (select ?x202 9)))
(let ((?x5442 (ite (>= ?x1515 (+ ?x3339 ?x4035)) 9 (ite (>= ?x1515 (+ ?x4889 ?x4980)) 8 ?x6747))))
(let ((?x6521 (ite (> 22803 (+ (+ ?x6983 (- 10 ?x4798)) 24003)) 1 (ite (<= 25203 (+ (+ ?x6983 (- 10 ?x4798)) 24003)) (- 1) 0))))
(let ((?x3485 (select ?x202 10)))
(let ((?x2647 (ite (> 22803 (+ (+ ?x6983 (- 11 ?x4798)) 24003)) 1 (ite (<= 25203 (+ (+ ?x6983 (- 11 ?x4798)) 24003)) (- 1) 0))))
(let ((?x6092 (select ?x202 11)))
(let ((?x6634 (ite (>= ?x1515 (+ ?x6092 ?x2647)) 11 (ite (>= ?x1515 (+ ?x3485 ?x6521)) 10 ?x5442))))
(let ((?x6761 (ite (> 22803 (+ (+ ?x6983 (- 12 ?x4798)) 24003)) 1 (ite (<= 25203 (+ (+ ?x6983 (- 12 ?x4798)) 24003)) (- 1) 0))))
(let ((?x6959 (select ?x202 12)))
(let ((?x6234 (ite (> 22803 (+ (+ ?x6983 (- 13 ?x4798)) 24003)) 1 (ite (<= 25203 (+ (+ ?x6983 (- 13 ?x4798)) 24003)) (- 1) 0))))
(let ((?x6394 (select ?x202 13)))
(let ((?x4326 (ite (>= ?x1515 (+ ?x6394 ?x6234)) 13 (ite (>= ?x1515 (+ ?x6959 ?x6761)) 12 ?x6634))))
(let ((?x7106 (ite (> 22803 (+ (+ ?x6983 (- 14 ?x4798)) 24003)) 1 (ite (<= 25203 (+ (+ ?x6983 (- 14 ?x4798)) 24003)) (- 1) 0))))
(let ((?x5902 (select ?x202 14)))
(let ((?x4661 (ite (> 22803 (+ (+ ?x6983 (- 15 ?x4798)) 24003)) 1 (ite (<= 25203 (+ (+ ?x6983 (- 15 ?x4798)) 24003)) (- 1) 0))))
(let ((?x6672 (select ?x202 15)))
(let ((?x3329 (ite (>= ?x1515 (+ ?x6672 ?x4661)) 15 (ite (>= ?x1515 (+ ?x5902 ?x7106)) 14 ?x4326))))
(let ((?x294 (ite (> 22803 (+ (+ ?x6983 (- 16 ?x4798)) 24003)) 1 (ite (<= 25203 (+ (+ ?x6983 (- 16 ?x4798)) 24003)) (- 1) 0))))
(let ((?x4266 (select ?x202 16)))
(let ((?x1941 (ite (> 22803 (+ (+ ?x6983 (- 17 ?x4798)) 24003)) 1 (ite (<= 25203 (+ (+ ?x6983 (- 17 ?x4798)) 24003)) (- 1) 0))))
(let ((?x6738 (select ?x202 17)))
(let ((?x5695 (ite (>= ?x1515 (+ ?x6738 ?x1941)) 17 (ite (>= ?x1515 (+ ?x4266 ?x294)) 16 ?x3329))))
(let ((?x5797 (ite (> 22803 (+ (+ ?x6983 (- 18 ?x4798)) 24003)) 1 (ite (<= 25203 (+ (+ ?x6983 (- 18 ?x4798)) 24003)) (- 1) 0))))
(let ((?x6168 (select ?x202 18)))
(let ((?x7148 (ite (> 22803 (+ (+ ?x6983 (- 19 ?x4798)) 24003)) 1 (ite (<= 25203 (+ (+ ?x6983 (- 19 ?x4798)) 24003)) (- 1) 0))))
(let ((?x6781 (select ?x202 19)))
(let ((?x3377 (ite (>= ?x1515 (+ ?x6781 ?x7148)) 19 (ite (>= ?x1515 (+ ?x6168 ?x5797)) 18 ?x5695))))
(let ((?x5816 (ite (> 22803 (+ (+ ?x6983 (- 20 ?x4798)) 24003)) 1 (ite (<= 25203 (+ (+ ?x6983 (- 20 ?x4798)) 24003)) (- 1) 0))))
(let ((?x6131 (select ?x202 20)))
(let ((?x7137 (ite (> 22803 (+ (+ ?x6983 (- 21 ?x4798)) 24003)) 1 (ite (<= 25203 (+ (+ ?x6983 (- 21 ?x4798)) 24003)) (- 1) 0))))
(let ((?x6899 (select ?x202 21)))
(let ((?x5670 (ite (>= ?x1515 (+ ?x6899 ?x7137)) 21 (ite (>= ?x1515 (+ ?x6131 ?x5816)) 20 ?x3377))))
(let ((?x3355 (ite (> 22803 (+ (+ ?x6983 (- 22 ?x4798)) 24003)) 1 (ite (<= 25203 (+ (+ ?x6983 (- 22 ?x4798)) 24003)) (- 1) 0))))
(let ((?x5890 (select ?x202 22)))
(let ((?x3373 (ite (> 22803 (+ (+ ?x6983 (- 23 ?x4798)) 24003)) 1 (ite (<= 25203 (+ (+ ?x6983 (- 23 ?x4798)) 24003)) (- 1) 0))))
(let ((?x4589 (select ?x202 23)))
(let ((?x716 (ite (>= ?x1515 (+ ?x4589 ?x3373)) 23 (ite (>= ?x1515 (+ ?x5890 ?x3355)) 22 ?x5670))))
(let ((?x6073 (ite (> 22803 (+ (+ ?x6983 (- 24 ?x4798)) 24003)) 1 (ite (<= 25203 (+ (+ ?x6983 (- 24 ?x4798)) 24003)) (- 1) 0))))
(let ((?x5885 (select ?x202 24)))
(let ((?x4738 (ite (> 22803 (+ (+ ?x6983 (- 25 ?x4798)) 24003)) 1 (ite (<= 25203 (+ (+ ?x6983 (- 25 ?x4798)) 24003)) (- 1) 0))))
(let ((?x4901 (select ?x202 25)))
(let ((?x5688 (ite (>= ?x1515 (+ ?x4901 ?x4738)) 25 (ite (>= ?x1515 (+ ?x5885 ?x6073)) 24 ?x716))))
(let ((?x3306 (ite (> 22803 (+ (+ ?x6983 (- 26 ?x4798)) 24003)) 1 (ite (<= 25203 (+ (+ ?x6983 (- 26 ?x4798)) 24003)) (- 1) 0))))
(let ((?x5084 (select ?x202 26)))
(let ((?x5556 (ite (> 22803 (+ (+ ?x6983 (- 27 ?x4798)) 24003)) 1 (ite (<= 25203 (+ (+ ?x6983 (- 27 ?x4798)) 24003)) (- 1) 0))))
(let ((?x909 (select ?x202 27)))
(let ((?x568 (ite (>= ?x1515 (+ ?x909 ?x5556)) 27 (ite (>= ?x1515 (+ ?x5084 ?x3306)) 26 ?x5688))))
(let ((?x4764 (ite (> 22803 (+ (+ ?x6983 (- 28 ?x4798)) 24003)) 1 (ite (<= 25203 (+ (+ ?x6983 (- 28 ?x4798)) 24003)) (- 1) 0))))
(let ((?x2574 (select ?x202 28)))
(let ((?x4893 (ite (> 22803 (+ (+ ?x6983 (- 29 ?x4798)) 24003)) 1 (ite (<= 25203 (+ (+ ?x6983 (- 29 ?x4798)) 24003)) (- 1) 0))))
(let ((?x3237 (select ?x202 29)))
(let ((?x6924 (ite (>= ?x1515 (+ ?x3237 ?x4893)) 29 (ite (>= ?x1515 (+ ?x2574 ?x4764)) 28 ?x568))))
(let ((?x5211 (ite (> 22803 (+ (+ ?x6983 (- 30 ?x4798)) 24003)) 1 (ite (<= 25203 (+ (+ ?x6983 (- 30 ?x4798)) 24003)) (- 1) 0))))
(let ((?x5613 (select ?x202 30)))
(let ((?x4781 (ite (> 22803 (+ (+ ?x6983 (- 31 ?x4798)) 24003)) 1 (ite (<= 25203 (+ (+ ?x6983 (- 31 ?x4798)) 24003)) (- 1) 0))))
(let ((?x4140 (select ?x202 31)))
(let ((?x1415 (ite (>= ?x1515 (+ ?x4140 ?x4781)) 31 (ite (>= ?x1515 (+ ?x5613 ?x5211)) 30 ?x6924))))
(let ((?x2078 (ite (> 22803 (+ (+ ?x6983 (- 32 ?x4798)) 24003)) 1 (ite (<= 25203 (+ (+ ?x6983 (- 32 ?x4798)) 24003)) (- 1) 0))))
(let ((?x6070 (select ?x202 32)))
(let ((?x6906 (ite (> 22803 (+ (+ ?x6983 (- 33 ?x4798)) 24003)) 1 (ite (<= 25203 (+ (+ ?x6983 (- 33 ?x4798)) 24003)) (- 1) 0))))
(let ((?x1239 (select ?x202 33)))
(let ((?x6913 (ite (>= ?x1515 (+ ?x1239 ?x6906)) 33 (ite (>= ?x1515 (+ ?x6070 ?x2078)) 32 ?x1415))))
(let ((?x5069 (ite (> 22803 (+ (+ ?x6983 (- 34 ?x4798)) 24003)) 1 (ite (<= 25203 (+ (+ ?x6983 (- 34 ?x4798)) 24003)) (- 1) 0))))
(let ((?x4880 (select ?x202 34)))
(let ((?x4189 (ite (> 22803 (+ (+ ?x6983 (- 35 ?x4798)) 24003)) 1 (ite (<= 25203 (+ (+ ?x6983 (- 35 ?x4798)) 24003)) (- 1) 0))))
(let ((?x6707 (select ?x202 35)))
(let ((?x3117 (ite (>= ?x1515 (+ ?x6707 ?x4189)) 35 (ite (>= ?x1515 (+ ?x4880 ?x5069)) 34 ?x6913))))
(let ((?x4906 (ite (> 22803 (+ (+ ?x6983 (- 36 ?x4798)) 24003)) 1 (ite (<= 25203 (+ (+ ?x6983 (- 36 ?x4798)) 24003)) (- 1) 0))))
(let ((?x5049 (select ?x202 36)))
(let ((?x5106 (ite (> 22803 (+ (+ ?x6983 (- 37 ?x4798)) 24003)) 1 (ite (<= 25203 (+ (+ ?x6983 (- 37 ?x4798)) 24003)) (- 1) 0))))
(let ((?x4547 (select ?x202 37)))
(let ((?x5247 (ite (>= ?x1515 (+ ?x4547 ?x5106)) 37 (ite (>= ?x1515 (+ ?x5049 ?x4906)) 36 ?x3117))))
(let ((?x3627 (ite (> 22803 (+ (+ ?x6983 (- 38 ?x4798)) 24003)) 1 (ite (<= 25203 (+ (+ ?x6983 (- 38 ?x4798)) 24003)) (- 1) 0))))
(let ((?x4074 (select ?x202 38)))
(let ((?x2101 (ite (> 22803 (+ (+ ?x6983 (- 39 ?x4798)) 24003)) 1 (ite (<= 25203 (+ (+ ?x6983 (- 39 ?x4798)) 24003)) (- 1) 0))))
(let ((?x1942 (select ?x202 39)))
(let ((?x5898 (ite (>= ?x1515 (+ ?x1942 ?x2101)) 39 (ite (>= ?x1515 (+ ?x4074 ?x3627)) 38 ?x5247))))
(let ((?x4902 (ite (> 22803 (+ (+ ?x6983 (- 40 ?x4798)) 24003)) 1 (ite (<= 25203 (+ (+ ?x6983 (- 40 ?x4798)) 24003)) (- 1) 0))))
(let ((?x4667 (select ?x202 40)))
(let ((?x4553 (ite (> 22803 (+ (+ ?x6983 (- 41 ?x4798)) 24003)) 1 (ite (<= 25203 (+ (+ ?x6983 (- 41 ?x4798)) 24003)) (- 1) 0))))
(let ((?x4595 (select ?x202 41)))
(let ((?x5045 (ite (>= ?x1515 (+ ?x4595 ?x4553)) 41 (ite (>= ?x1515 (+ ?x4667 ?x4902)) 40 ?x5898))))
(let ((?x821 (ite (> 22803 (+ (+ ?x6983 (- 42 ?x4798)) 24003)) 1 (ite (<= 25203 (+ (+ ?x6983 (- 42 ?x4798)) 24003)) (- 1) 0))))
(let ((?x4724 (select ?x202 42)))
(let ((?x4088 (ite (> 22803 (+ (+ ?x6983 (- 43 ?x4798)) 24003)) 1 (ite (<= 25203 (+ (+ ?x6983 (- 43 ?x4798)) 24003)) (- 1) 0))))
(let ((?x3954 (select ?x202 43)))
(let ((?x5082 (ite (>= ?x1515 (+ ?x3954 ?x4088)) 43 (ite (>= ?x1515 (+ ?x4724 ?x821)) 42 ?x5045))))
(let ((?x6925 (ite (> 22803 (+ (+ ?x6983 (- 44 ?x4798)) 24003)) 1 (ite (<= 25203 (+ (+ ?x6983 (- 44 ?x4798)) 24003)) (- 1) 0))))
(let ((?x5177 (select ?x202 44)))
(let ((?x1057 (ite (> 22803 (+ (+ ?x6983 (- 45 ?x4798)) 24003)) 1 (ite (<= 25203 (+ (+ ?x6983 (- 45 ?x4798)) 24003)) (- 1) 0))))
(let ((?x5369 (select ?x202 45)))
(let ((?x6034 (ite (>= ?x1515 (+ ?x5369 ?x1057)) 45 (ite (>= ?x1515 (+ ?x5177 ?x6925)) 44 ?x5082))))
(let ((?x6933 (ite (> 22803 (+ (+ ?x6983 (- 46 ?x4798)) 24003)) 1 (ite (<= 25203 (+ (+ ?x6983 (- 46 ?x4798)) 24003)) (- 1) 0))))
(let ((?x4455 (select ?x202 46)))
(let ((?x5187 (ite (> 22803 (+ (+ ?x6983 (- 47 ?x4798)) 24003)) 1 (ite (<= 25203 (+ (+ ?x6983 (- 47 ?x4798)) 24003)) (- 1) 0))))
(let ((?x4063 (select ?x202 47)))
(let ((?x5381 (ite (>= ?x1515 (+ ?x4063 ?x5187)) 47 (ite (>= ?x1515 (+ ?x4455 ?x6933)) 46 ?x6034))))
(let ((?x4407 (+ ?x6983 (- ?x5381 ?x4798))))
(let ((?x4953 (+ ?x4407 24003)))
(let ((?x800 (+ (select ?x202 ?x5381) (ite (> 22803 ?x4953) 1 (ite (<= 25203 ?x4953) (- 1) 0)))))
(let ((?x6468 (- ?x1515 ?x800)))
(let ((?x3032 (ite (or (= 22802 ?x4953) (= 25202 ?x4953)) 28 (select ?x108 ?x5381))))
(let ((?x1019 (+ x_months 2)))
(let ((?x3859 (mod ?x1019 48)))
(let ((?x2096 (ite (> 22803 (+ ?x1019 24003)) 1 (ite (<= 25203 (+ ?x1019 24003)) (- 1) 0))))
(let ((?x6945 (ite (or (= 22802 (+ ?x1019 24003)) (= 25202 (+ ?x1019 24003))) 28 (select ?x108 ?x3859))))
(let ((?x2180 (- ?x6945 1)))
(let ((?x982 (+ (select ?x202 ?x3859) (ite $x6917 0 (ite (> x_beta ?x2180) ?x2180 x_beta)))))
(let ((?x5072 (+ (+ ?x982 ?x2096) 0)))
(let ((?x5198 (+ ?x1019 (* (div ?x5072 1461) 48))))
(let ((?x4227 (+ (+ ?x5198 (- 1 ?x3859)) 24003)))
(let ((?x5083 (mod ?x5072 1461)))
(let (($x3722 (>= ?x5083 (+ ?x1024 (ite (> 22803 ?x4227) 1 (ite (<= 25203 ?x4227) (- 1) 0))))))
(let ((?x6003 (ite (> 22803 (+ (+ ?x5198 (- 2 ?x3859)) 24003)) 1 (ite (<= 25203 (+ (+ ?x5198 (- 2 ?x3859)) 24003)) (- 1) 0))))
(let ((?x4830 (ite (> 22803 (+ (+ ?x5198 (- 3 ?x3859)) 24003)) 1 (ite (<= 25203 (+ (+ ?x5198 (- 3 ?x3859)) 24003)) (- 1) 0))))
(let ((?x4827 (ite (>= ?x5083 (+ ?x5250 ?x4830)) 3 (ite (>= ?x5083 (+ ?x5852 ?x6003)) 2 (ite $x3722 1 0)))))
(let ((?x4626 (ite (> 22803 (+ (+ ?x5198 (- 4 ?x3859)) 24003)) 1 (ite (<= 25203 (+ (+ ?x5198 (- 4 ?x3859)) 24003)) (- 1) 0))))
(let ((?x1866 (ite (> 22803 (+ (+ ?x5198 (- 5 ?x3859)) 24003)) 1 (ite (<= 25203 (+ (+ ?x5198 (- 5 ?x3859)) 24003)) (- 1) 0))))
(let ((?x5158 (ite (>= ?x5083 (+ ?x6834 ?x1866)) 5 (ite (>= ?x5083 (+ ?x4540 ?x4626)) 4 ?x4827))))
(let ((?x3041 (ite (> 22803 (+ (+ ?x5198 (- 6 ?x3859)) 24003)) 1 (ite (<= 25203 (+ (+ ?x5198 (- 6 ?x3859)) 24003)) (- 1) 0))))
(let ((?x1580 (ite (> 22803 (+ (+ ?x5198 (- 7 ?x3859)) 24003)) 1 (ite (<= 25203 (+ (+ ?x5198 (- 7 ?x3859)) 24003)) (- 1) 0))))
(let ((?x1467 (ite (>= ?x5083 (+ ?x1702 ?x1580)) 7 (ite (>= ?x5083 (+ ?x5446 ?x3041)) 6 ?x5158))))
(let ((?x3353 (ite (> 22803 (+ (+ ?x5198 (- 8 ?x3859)) 24003)) 1 (ite (<= 25203 (+ (+ ?x5198 (- 8 ?x3859)) 24003)) (- 1) 0))))
(let ((?x4814 (ite (> 22803 (+ (+ ?x5198 (- 9 ?x3859)) 24003)) 1 (ite (<= 25203 (+ (+ ?x5198 (- 9 ?x3859)) 24003)) (- 1) 0))))
(let ((?x4647 (ite (>= ?x5083 (+ ?x3339 ?x4814)) 9 (ite (>= ?x5083 (+ ?x4889 ?x3353)) 8 ?x1467))))
(let ((?x1011 (ite (> 22803 (+ (+ ?x5198 (- 10 ?x3859)) 24003)) 1 (ite (<= 25203 (+ (+ ?x5198 (- 10 ?x3859)) 24003)) (- 1) 0))))
(let ((?x4245 (ite (> 22803 (+ (+ ?x5198 (- 11 ?x3859)) 24003)) 1 (ite (<= 25203 (+ (+ ?x5198 (- 11 ?x3859)) 24003)) (- 1) 0))))
(let ((?x6433 (ite (>= ?x5083 (+ ?x6092 ?x4245)) 11 (ite (>= ?x5083 (+ ?x3485 ?x1011)) 10 ?x4647))))
(let ((?x5855 (ite (> 22803 (+ (+ ?x5198 (- 12 ?x3859)) 24003)) 1 (ite (<= 25203 (+ (+ ?x5198 (- 12 ?x3859)) 24003)) (- 1) 0))))
(let ((?x6999 (ite (> 22803 (+ (+ ?x5198 (- 13 ?x3859)) 24003)) 1 (ite (<= 25203 (+ (+ ?x5198 (- 13 ?x3859)) 24003)) (- 1) 0))))
(let ((?x6673 (ite (>= ?x5083 (+ ?x6394 ?x6999)) 13 (ite (>= ?x5083 (+ ?x6959 ?x5855)) 12 ?x6433))))
(let ((?x5905 (ite (> 22803 (+ (+ ?x5198 (- 14 ?x3859)) 24003)) 1 (ite (<= 25203 (+ (+ ?x5198 (- 14 ?x3859)) 24003)) (- 1) 0))))
(let ((?x6676 (ite (> 22803 (+ (+ ?x5198 (- 15 ?x3859)) 24003)) 1 (ite (<= 25203 (+ (+ ?x5198 (- 15 ?x3859)) 24003)) (- 1) 0))))
(let ((?x5607 (ite (>= ?x5083 (+ ?x6672 ?x6676)) 15 (ite (>= ?x5083 (+ ?x5902 ?x5905)) 14 ?x6673))))
(let ((?x5466 (ite (> 22803 (+ (+ ?x5198 (- 16 ?x3859)) 24003)) 1 (ite (<= 25203 (+ (+ ?x5198 (- 16 ?x3859)) 24003)) (- 1) 0))))
(let ((?x1371 (ite (> 22803 (+ (+ ?x5198 (- 17 ?x3859)) 24003)) 1 (ite (<= 25203 (+ (+ ?x5198 (- 17 ?x3859)) 24003)) (- 1) 0))))
(let ((?x4130 (ite (>= ?x5083 (+ ?x6738 ?x1371)) 17 (ite (>= ?x5083 (+ ?x4266 ?x5466)) 16 ?x5607))))
(let ((?x6723 (ite (> 22803 (+ (+ ?x5198 (- 18 ?x3859)) 24003)) 1 (ite (<= 25203 (+ (+ ?x5198 (- 18 ?x3859)) 24003)) (- 1) 0))))
(let ((?x6066 (ite (> 22803 (+ (+ ?x5198 (- 19 ?x3859)) 24003)) 1 (ite (<= 25203 (+ (+ ?x5198 (- 19 ?x3859)) 24003)) (- 1) 0))))
(let ((?x6623 (ite (>= ?x5083 (+ ?x6781 ?x6066)) 19 (ite (>= ?x5083 (+ ?x6168 ?x6723)) 18 ?x4130))))
(let ((?x1253 (ite (> 22803 (+ (+ ?x5198 (- 20 ?x3859)) 24003)) 1 (ite (<= 25203 (+ (+ ?x5198 (- 20 ?x3859)) 24003)) (- 1) 0))))
(let ((?x5566 (ite (> 22803 (+ (+ ?x5198 (- 21 ?x3859)) 24003)) 1 (ite (<= 25203 (+ (+ ?x5198 (- 21 ?x3859)) 24003)) (- 1) 0))))
(let ((?x3893 (ite (>= ?x5083 (+ ?x6899 ?x5566)) 21 (ite (>= ?x5083 (+ ?x6131 ?x1253)) 20 ?x6623))))
(let ((?x6123 (ite (> 22803 (+ (+ ?x5198 (- 22 ?x3859)) 24003)) 1 (ite (<= 25203 (+ (+ ?x5198 (- 22 ?x3859)) 24003)) (- 1) 0))))
(let ((?x2449 (ite (> 22803 (+ (+ ?x5198 (- 23 ?x3859)) 24003)) 1 (ite (<= 25203 (+ (+ ?x5198 (- 23 ?x3859)) 24003)) (- 1) 0))))
(let ((?x5291 (ite (>= ?x5083 (+ ?x4589 ?x2449)) 23 (ite (>= ?x5083 (+ ?x5890 ?x6123)) 22 ?x3893))))
(let ((?x5375 (ite (> 22803 (+ (+ ?x5198 (- 24 ?x3859)) 24003)) 1 (ite (<= 25203 (+ (+ ?x5198 (- 24 ?x3859)) 24003)) (- 1) 0))))
(let ((?x1266 (ite (> 22803 (+ (+ ?x5198 (- 25 ?x3859)) 24003)) 1 (ite (<= 25203 (+ (+ ?x5198 (- 25 ?x3859)) 24003)) (- 1) 0))))
(let ((?x3000 (ite (>= ?x5083 (+ ?x4901 ?x1266)) 25 (ite (>= ?x5083 (+ ?x5885 ?x5375)) 24 ?x5291))))
(let ((?x3692 (ite (> 22803 (+ (+ ?x5198 (- 26 ?x3859)) 24003)) 1 (ite (<= 25203 (+ (+ ?x5198 (- 26 ?x3859)) 24003)) (- 1) 0))))
(let ((?x5489 (ite (> 22803 (+ (+ ?x5198 (- 27 ?x3859)) 24003)) 1 (ite (<= 25203 (+ (+ ?x5198 (- 27 ?x3859)) 24003)) (- 1) 0))))
(let ((?x6941 (ite (>= ?x5083 (+ ?x909 ?x5489)) 27 (ite (>= ?x5083 (+ ?x5084 ?x3692)) 26 ?x3000))))
(let ((?x3207 (ite (> 22803 (+ (+ ?x5198 (- 28 ?x3859)) 24003)) 1 (ite (<= 25203 (+ (+ ?x5198 (- 28 ?x3859)) 24003)) (- 1) 0))))
(let ((?x2377 (ite (> 22803 (+ (+ ?x5198 (- 29 ?x3859)) 24003)) 1 (ite (<= 25203 (+ (+ ?x5198 (- 29 ?x3859)) 24003)) (- 1) 0))))
(let ((?x1130 (ite (>= ?x5083 (+ ?x3237 ?x2377)) 29 (ite (>= ?x5083 (+ ?x2574 ?x3207)) 28 ?x6941))))
(let ((?x5413 (ite (> 22803 (+ (+ ?x5198 (- 30 ?x3859)) 24003)) 1 (ite (<= 25203 (+ (+ ?x5198 (- 30 ?x3859)) 24003)) (- 1) 0))))
(let ((?x6495 (ite (> 22803 (+ (+ ?x5198 (- 31 ?x3859)) 24003)) 1 (ite (<= 25203 (+ (+ ?x5198 (- 31 ?x3859)) 24003)) (- 1) 0))))
(let ((?x3082 (ite (>= ?x5083 (+ ?x4140 ?x6495)) 31 (ite (>= ?x5083 (+ ?x5613 ?x5413)) 30 ?x1130))))
(let ((?x4429 (ite (> 22803 (+ (+ ?x5198 (- 32 ?x3859)) 24003)) 1 (ite (<= 25203 (+ (+ ?x5198 (- 32 ?x3859)) 24003)) (- 1) 0))))
(let ((?x6235 (ite (> 22803 (+ (+ ?x5198 (- 33 ?x3859)) 24003)) 1 (ite (<= 25203 (+ (+ ?x5198 (- 33 ?x3859)) 24003)) (- 1) 0))))
(let ((?x4581 (ite (>= ?x5083 (+ ?x1239 ?x6235)) 33 (ite (>= ?x5083 (+ ?x6070 ?x4429)) 32 ?x3082))))
(let ((?x2006 (ite (> 22803 (+ (+ ?x5198 (- 34 ?x3859)) 24003)) 1 (ite (<= 25203 (+ (+ ?x5198 (- 34 ?x3859)) 24003)) (- 1) 0))))
(let ((?x4939 (ite (> 22803 (+ (+ ?x5198 (- 35 ?x3859)) 24003)) 1 (ite (<= 25203 (+ (+ ?x5198 (- 35 ?x3859)) 24003)) (- 1) 0))))
(let ((?x6164 (ite (>= ?x5083 (+ ?x6707 ?x4939)) 35 (ite (>= ?x5083 (+ ?x4880 ?x2006)) 34 ?x4581))))
(let ((?x1337 (ite (> 22803 (+ (+ ?x5198 (- 36 ?x3859)) 24003)) 1 (ite (<= 25203 (+ (+ ?x5198 (- 36 ?x3859)) 24003)) (- 1) 0))))
(let ((?x2477 (ite (> 22803 (+ (+ ?x5198 (- 37 ?x3859)) 24003)) 1 (ite (<= 25203 (+ (+ ?x5198 (- 37 ?x3859)) 24003)) (- 1) 0))))
(let ((?x5535 (ite (>= ?x5083 (+ ?x4547 ?x2477)) 37 (ite (>= ?x5083 (+ ?x5049 ?x1337)) 36 ?x6164))))
(let ((?x2826 (ite (> 22803 (+ (+ ?x5198 (- 38 ?x3859)) 24003)) 1 (ite (<= 25203 (+ (+ ?x5198 (- 38 ?x3859)) 24003)) (- 1) 0))))
(let ((?x6247 (ite (> 22803 (+ (+ ?x5198 (- 39 ?x3859)) 24003)) 1 (ite (<= 25203 (+ (+ ?x5198 (- 39 ?x3859)) 24003)) (- 1) 0))))
(let ((?x5070 (ite (>= ?x5083 (+ ?x1942 ?x6247)) 39 (ite (>= ?x5083 (+ ?x4074 ?x2826)) 38 ?x5535))))
(let ((?x2578 (ite (> 22803 (+ (+ ?x5198 (- 40 ?x3859)) 24003)) 1 (ite (<= 25203 (+ (+ ?x5198 (- 40 ?x3859)) 24003)) (- 1) 0))))
(let ((?x3514 (ite (> 22803 (+ (+ ?x5198 (- 41 ?x3859)) 24003)) 1 (ite (<= 25203 (+ (+ ?x5198 (- 41 ?x3859)) 24003)) (- 1) 0))))
(let ((?x4844 (ite (>= ?x5083 (+ ?x4595 ?x3514)) 41 (ite (>= ?x5083 (+ ?x4667 ?x2578)) 40 ?x5070))))
(let ((?x4808 (ite (> 22803 (+ (+ ?x5198 (- 42 ?x3859)) 24003)) 1 (ite (<= 25203 (+ (+ ?x5198 (- 42 ?x3859)) 24003)) (- 1) 0))))
(let ((?x1861 (ite (> 22803 (+ (+ ?x5198 (- 43 ?x3859)) 24003)) 1 (ite (<= 25203 (+ (+ ?x5198 (- 43 ?x3859)) 24003)) (- 1) 0))))
(let ((?x3777 (ite (>= ?x5083 (+ ?x3954 ?x1861)) 43 (ite (>= ?x5083 (+ ?x4724 ?x4808)) 42 ?x4844))))
(let ((?x1349 (ite (> 22803 (+ (+ ?x5198 (- 44 ?x3859)) 24003)) 1 (ite (<= 25203 (+ (+ ?x5198 (- 44 ?x3859)) 24003)) (- 1) 0))))
(let ((?x2258 (ite (> 22803 (+ (+ ?x5198 (- 45 ?x3859)) 24003)) 1 (ite (<= 25203 (+ (+ ?x5198 (- 45 ?x3859)) 24003)) (- 1) 0))))
(let ((?x1182 (ite (>= ?x5083 (+ ?x5369 ?x2258)) 45 (ite (>= ?x5083 (+ ?x5177 ?x1349)) 44 ?x3777))))
(let ((?x6846 (ite (> 22803 (+ (+ ?x5198 (- 46 ?x3859)) 24003)) 1 (ite (<= 25203 (+ (+ ?x5198 (- 46 ?x3859)) 24003)) (- 1) 0))))
(let ((?x6241 (ite (> 22803 (+ (+ ?x5198 (- 47 ?x3859)) 24003)) 1 (ite (<= 25203 (+ (+ ?x5198 (- 47 ?x3859)) 24003)) (- 1) 0))))
(let ((?x3069 (ite (>= ?x5083 (+ ?x4063 ?x6241)) 47 (ite (>= ?x5083 (+ ?x4455 ?x6846)) 46 ?x1182))))
(let ((?x5019 (+ ?x5198 (- ?x3069 ?x3859))))
(let ((?x4707 (+ ?x5019 24003)))
(let ((?x3655 (+ (select ?x202 ?x3069) (ite (> 22803 ?x4707) 1 (ite (<= 25203 ?x4707) (- 1) 0)))))
(let ((?x3998 (- ?x5083 ?x3655)))
(let ((?x995 (ite (or (= 22802 ?x4707) (= 25202 ?x4707)) 28 (select ?x108 ?x3069))))
(let (($x1768 (= (ite (= 1 (ite (>= ?x3998 ?x995) 1 0)) (- ?x3998 ?x995) ?x3998) (ite (= 1 (ite (>= ?x6468 ?x3032) 1 0)) (- ?x6468 ?x3032) ?x6468))))
(let (($x3667 (= (+ ?x5019 (ite (>= ?x3998 ?x995) 1 0)) (+ ?x4407 (ite (>= ?x6468 ?x3032) 1 0)))))
(and $x3667 $x1768)))))))))))))))))))))))))))))))))))))))))))))))))))))))))))))))))))))))))))))))))))))))))))))))))))))))))))))))))))))))))))))))))))))))))))))))))))))))))))))))))))))))))))))))))))))))))))))))))))))))))))))))))))))))))))))))))))))))))))))))))))))))))))))))))))))))))))))))))))))))))))
(check-sat)
